NAME: test42
TYPE: TSP
DIMENSION: 10
EDGE_WEIGHT_TYPE: EUC_2D
NODE_COORD_SECTION
1 27.309242671403243 3.8521846290343165
2 8.594196697501866 63.213190715556344
3 97.63164418407226 3.9706063287633264
4 89.98569604020463 97.33652602140175
5 83.38039933842171 87.55999733878585
6 97.94165338335297 50.37363294519053
7 59.742856317213636 58.937414569314974
8 67.98396014721268 28.082546661591724
9 22.16307138600496 15.31151791883756
10 92.60415959181447 82.93255994904686
EOF
